SDVRP instances/p10/p10_110_tsplib0_splitx10_0.vrp
NAME:.\SDVRP_splitx10_
BEST_KNOWN: 0
COMMENT: 0
DIMENSION: 658
CAPACITY: 2000
EDGE_WEIGHT_FORMAT: FUNCTION
EDGE_WEIGHT_TYPE: EXACT_2D
NODE_COORD_SECTION
1 0.00000 0.00000
2 -13 -13
3 -13 -13
4 -13 -13
5 -13 -13
6 -13 -13
7 1 -9
8 1 -9
9 1 -9
10 1 -9
11 1 -9
12 -14 10
13 -14 10
14 -14 10
15 10 0
16 10 0
17 20 -15
18 20 -15
19 20 -15
20 20 -15
21 20 -15
22 -2 -1
23 -2 -1
24 -2 -1
25 -2 -1
26 -2 -1
27 15 15
28 20 10
29 20 10
30 -9 24
31 -9 24
32 -9 24
33 5 31
34 20 30
35 20 30
36 20 30
37 20 30
38 0 16
39 0 16
40 0 16
41 0 16
42 0 16
43 27 0
44 27 22
45 27 22
46 27 -11
47 27 -11
48 27 -11
49 -14 1
50 -14 1
51 -14 1
52 -14 1
53 -2 9
54 -2 9
55 -26 21
56 -26 21
57 27 13
58 27 13
59 27 13
60 27 13
61 27 13
62 31 -21
63 31 -21
64 9 -22
65 9 -22
66 -9 -22
67 -9 -22
68 -9 -22
69 -24 -7
70 -24 -7
71 -24 -7
72 -28 8
73 -28 8
74 -18 29
75 -18 29
76 -18 29
77 -18 29
78 6 11
79 6 11
80 6 11
81 6 11
82 20 -1
83 0 -19
84 0 -19
85 0 -19
86 0 -19
87 17 -9
88 17 -9
89 8 -9
90 8 -9
91 -4 41
92 -4 41
93 -4 41
94 -4 41
95 -4 41
96 -13 18
97 -13 18
98 -13 18
99 -13 18
100 -9 -6
101 -9 -6
102 -9 -6
103 -9 -6
104 15 5
105 15 5
106 15 5
107 20 15
108 20 15
109 20 15
110 20 15
111 20 15
112 19 -25
113 25 -20
114 25 -20
115 25 -20
116 25 -20
117 12 31
118 -5 25
119 -5 15
120 -5 15
121 -5 15
122 -5 15
123 -23 -18
124 -23 -18
125 -23 -18
126 -20 -21
127 -20 -21
128 -19 -16
129 -19 -16
130 -19 -16
131 -14 13
132 -14 13
133 -14 13
134 15 -5
135 15 -5
136 15 -5
137 15 -5
138 15 -5
139 16 7
140 16 7
141 16 7
142 16 7
143 15 -20
144 13 -14
145 13 -14
146 13 -14
147 13 -14
148 13 -14
149 -23 3
150 -23 3
151 -23 3
152 -23 3
153 -23 3
154 2 17
155 2 17
156 2 17
157 14 14
158 14 14
159 14 14
160 17 29
161 17 29
162 17 29
163 -15 -9
164 -15 -9
165 5 -5
166 5 -5
167 5 -5
168 5 -5
169 5 -5
170 -14 12
171 -14 12
172 -14 12
173 -14 12
174 -18 28
175 -18 28
176 -18 28
177 -18 28
178 -4 27
179 -4 27
180 -4 27
181 -4 27
182 17 -2
183 17 -2
184 17 -2
185 16 -14
186 16 -14
187 16 -14
188 16 -14
189 16 -14
190 7 6
191 7 6
192 7 6
193 7 6
194 -4 -3
195 -4 -3
196 -4 -3
197 -4 -3
198 -4 -3
199 -30 -10
200 -30 -10
201 -30 -10
202 -23 7
203 -23 7
204 -23 7
205 -23 7
206 1 -19
207 1 -19
208 1 -19
209 1 -19
210 17 6
211 17 6
212 17 6
213 17 6
214 -8 -12
215 -18 -2
216 -18 -2
217 -18 -2
218 -18 -2
219 -18 -2
220 -22 -22
221 -22 -22
222 22 23
223 22 23
224 22 23
225 22 23
226 22 23
227 22 23
228 27 7
229 27 7
230 27 7
231 27 7
232 27 7
233 7 22
234 7 22
235 7 22
236 7 22
237 7 22
238 7 22
239 -19 22
240 -19 22
241 -19 22
242 -19 22
243 -19 22
244 -27 17
245 -27 17
246 -27 17
247 -27 17
248 -27 17
249 -28 3
250 -28 3
251 -28 3
252 -28 3
253 -28 3
254 -28 3
255 -8 33
256 -5 13
257 -5 13
258 -5 13
259 -5 13
260 8 32
261 8 32
262 23 13
263 23 13
264 23 13
265 23 13
266 23 -8
267 23 -8
268 2 34
269 2 34
270 2 34
271 2 34
272 3 11
273 3 11
274 3 11
275 11 -25
276 11 -25
277 11 -25
278 11 -25
279 26 -2
280 26 -2
281 26 -2
282 27 28
283 27 28
284 27 28
285 28 34
286 28 34
287 28 34
288 28 34
289 28 34
290 28 34
291 -3 -13
292 -3 -13
293 -3 -13
294 -3 -13
295 10 0
296 10 0
297 10 0
298 10 0
299 10 0
300 10 0
301 24 -20
302 24 -20
303 24 -20
304 24 -20
305 -30 -29
306 -30 -29
307 -30 -29
308 -30 -29
309 -30 -29
310 -25 -18
311 -25 -18
312 -14 -25
313 -14 -25
314 -14 -25
315 -14 -25
316 -30 29
317 -30 29
318 -5 -20
319 -5 -20
320 -5 -20
321 4 -25
322 4 -25
323 4 -25
324 4 -25
325 4 -25
326 -3 4
327 -3 4
328 -3 4
329 -10 -3
330 -10 -3
331 -10 -3
332 -10 -3
333 -10 20
334 -10 20
335 -10 20
336 -10 20
337 13 -7
338 13 -7
339 13 -7
340 13 -7
341 13 -7
342 21 2
343 21 2
344 21 2
345 21 2
346 6 14
347 6 14
348 0 -18
349 0 -18
350 0 -18
351 20 10
352 20 10
353 20 10
354 20 10
355 20 -15
356 20 -15
357 20 -15
358 20 -15
359 -20 -5
360 -20 -5
361 -20 -5
362 -20 -5
363 -20 -5
364 -20 -5
365 -10 -5
366 -10 -5
367 -10 -5
368 -10 -5
369 -10 -5
370 -15 15
371 -15 15
372 -15 15
373 -25 8
374 -25 8
375 20 25
376 20 25
377 -5 25
378 -5 25
379 -5 25
380 -5 25
381 -15 30
382 -15 30
383 -15 30
384 -15 30
385 -15 30
386 15 0
387 15 0
388 15 0
389 15 0
390 15 0
391 -5 -10
392 -5 -10
393 -5 -10
394 -20 -25
395 -5 -30
396 -5 -30
397 -5 -30
398 -5 -30
399 -25 -15
400 -25 -15
401 -25 -15
402 -30 -5
403 -30 -5
404 -30 -5
405 -30 -5
406 -30 -5
407 -15 5
408 -15 5
409 -15 5
410 -15 5
411 -20 25
412 -20 25
413 -20 25
414 -20 25
415 10 30
416 10 30
417 10 30
418 10 30
419 10 -15
420 10 -15
421 10 -15
422 10 -15
423 10 -15
424 10 -25
425 10 -25
426 10 -25
427 10 -25
428 20 -30
429 30 0
430 30 0
431 30 -15
432 30 -15
433 30 -15
434 30 -15
435 10 -5
436 10 -5
437 10 -5
438 0 5
439 0 5
440 6 2
441 6 2
442 6 2
443 6 2
444 6 2
445 6 2
446 29 7
447 5 25
448 5 25
449 5 25
450 -4 17
451 0 34
452 0 34
453 0 34
454 18 17
455 18 17
456 18 17
457 30 20
458 30 20
459 30 20
460 30 20
461 28 30
462 28 30
463 28 30
464 28 30
465 -33 25
466 -33 25
467 -33 25
468 -33 25
469 -15 -15
470 -15 -15
471 -30 -30
472 -30 -30
473 25 -23
474 25 -23
475 25 -23
476 25 -23
477 5 -10
478 5 -10
479 5 -10
480 5 -10
481 7 -28
482 7 -28
483 7 -28
484 7 -28
485 7 -28
486 7 -28
487 -11 -23
488 -11 -23
489 -12 -32
490 -12 -32
491 -12 -32
492 -24 -21
493 -24 -21
494 -29 3
495 -29 3
496 -29 3
497 -33 13
498 -33 13
499 -33 13
500 -27 21
501 -27 21
502 -27 21
503 -22 17
504 -22 17
505 -22 17
506 -22 17
507 -22 17
508 -22 17
509 -29 33
510 -29 33
511 -29 33
512 12 12
513 12 12
514 14 23
515 14 23
516 14 23
517 14 23
518 -8 8
519 2 -4
520 2 -4
521 22 -6
522 22 -6
523 22 -6
524 22 -6
525 22 -6
526 22 -6
527 28 -12
528 28 -12
529 28 -12
530 28 -12
531 28 -12
532 18 -23
533 -3 -23
534 1 -9
535 1 -9
536 1 -9
537 -14 -11
538 -14 -11
539 -18 -1
540 -18 -1
541 -18 -1
542 -23 -11
543 -23 -11
544 -11 23
545 -8 34
546 -8 34
547 -20 42
548 27 42
549 27 42
550 14 38
551 32 -30
552 32 -30
553 32 -30
554 32 -30
555 21 4
556 21 4
557 21 4
558 21 4
559 21 4
560 21 4
561 2 12
562 2 12
563 2 12
564 2 21
565 22 33
566 12 -19
567 12 -19
568 12 -19
569 12 -19
570 9 -18
571 11 -22
572 11 -22
573 11 -22
574 14 -24
575 14 -24
576 14 -24
577 14 7
578 14 7
579 14 7
580 18 8
581 18 8
582 18 8
583 18 8
584 18 8
585 26 17
586 26 17
587 26 17
588 22 13
589 22 13
590 21 2
591 20 19
592 20 19
593 20 19
594 20 19
595 20 19
596 -20 12
597 -20 12
598 -20 12
599 -21 2
600 -21 2
601 -21 2
602 -21 2
603 -24 -4
604 -24 -4
605 -19 -13
606 -19 -13
607 -19 -13
608 -31 -17
609 -31 -17
610 -31 -17
611 -7 -17
612 -7 -17
613 -7 -17
614 -7 -17
615 -9 17
616 -9 17
617 -9 17
618 -9 17
619 -9 17
620 -9 0
621 -9 0
622 -9 0
623 -4 32
624 -20 -16
625 -20 -16
626 -20 -16
627 -20 -16
628 -20 -16
629 -13 -13
630 -17 -11
631 -17 -11
632 -17 -11
633 -17 -11
634 -17 -11
635 -9 -8
636 -9 -8
637 -9 -8
638 -9 -8
639 -9 -8
640 -10 -11
641 -10 -11
642 -10 -11
643 -13 -8
644 -13 -8
645 -10 -14
646 -10 -14
647 -16 -14
648 -16 -14
649 -16 -14
650 -16 -14
651 -16 -14
652 -15 -9
653 -15 -9
654 -15 -9
655 -17 -17
656 -17 -17
657 -17 -17
658 -17 -17
DEMAND_SECTION
1 0
2 100
3 20
4 20
5 20
6 10
7 20
8 20
9 20
10 20
11 10
12 20
13 20
14 20
15 100
16 20
17 100
18 20
19 20
20 20
21 20
22 100
23 20
24 20
25 20
26 10
27 100
28 20
29 10
30 20
31 20
32 10
33 20
34 100
35 20
36 20
37 20
38 20
39 20
40 20
41 20
42 10
43 100
44 100
45 10
46 100
47 20
48 20
49 20
50 20
51 20
52 10
53 20
54 10
55 100
56 10
57 100
58 20
59 20
60 20
61 10
62 100
63 10
64 20
65 10
66 100
67 20
68 10
69 100
70 20
71 10
72 100
73 20
74 100
75 20
76 20
77 20
78 100
79 20
80 20
81 10
82 20
83 100
84 20
85 20
86 10
87 20
88 20
89 20
90 10
91 100
92 20
93 20
94 20
95 10
96 100
97 20
98 20
99 20
100 100
101 20
102 20
103 20
104 20
105 20
106 10
107 100
108 20
109 20
110 20
111 10
112 100
113 100
114 20
115 20
116 20
117 100
118 100
119 100
120 20
121 20
122 20
123 20
124 20
125 10
126 20
127 10
128 100
129 20
130 10
131 100
132 20
133 20
134 100
135 20
136 20
137 20
138 10
139 20
140 20
141 20
142 10
143 100
144 20
145 20
146 20
147 20
148 10
149 100
150 20
151 20
152 20
153 10
154 100
155 20
156 10
157 100
158 20
159 10
160 100
161 20
162 10
163 20
164 10
165 100
166 20
167 20
168 20
169 20
170 100
171 20
172 20
173 10
174 100
175 20
176 20
177 10
178 20
179 20
180 20
181 10
182 100
183 20
184 20
185 20
186 20
187 20
188 20
189 10
190 20
191 20
192 20
193 20
194 100
195 20
196 20
197 20
198 10
199 20
200 20
201 20
202 20
203 20
204 20
205 10
206 20
207 20
208 20
209 10
210 20
211 20
212 20
213 20
214 100
215 100
216 20
217 20
218 20
219 10
220 20
221 10
222 100
223 20
224 20
225 20
226 20
227 10
228 100
229 20
230 20
231 20
232 10
233 100
234 20
235 20
236 20
237 20
238 10
239 100
240 20
241 20
242 20
243 20
244 100
245 20
246 20
247 20
248 10
249 100
250 20
251 20
252 20
253 20
254 10
255 20
256 20
257 20
258 20
259 10
260 100
261 20
262 100
263 20
264 20
265 10
266 100
267 20
268 100
269 20
270 20
271 20
272 100
273 20
274 10
275 20
276 20
277 20
278 10
279 100
280 20
281 20
282 100
283 20
284 10
285 100
286 20
287 20
288 20
289 20
290 10
291 100
292 20
293 20
294 20
295 100
296 20
297 20
298 20
299 20
300 10
301 100
302 20
303 20
304 20
305 100
306 20
307 20
308 20
309 10
310 20
311 20
312 100
313 20
314 20
315 20
316 100
317 20
318 20
319 20
320 10
321 100
322 20
323 20
324 20
325 20
326 100
327 20
328 20
329 100
330 20
331 20
332 20
333 100
334 20
335 20
336 10
337 20
338 20
339 20
340 20
341 10
342 100
343 20
344 20
345 10
346 20
347 10
348 100
349 20
350 20
351 100
352 20
353 20
354 20
355 100
356 20
357 20
358 10
359 100
360 20
361 20
362 20
363 20
364 10
365 20
366 20
367 20
368 20
369 10
370 20
371 20
372 20
373 20
374 10
375 100
376 20
377 20
378 20
379 20
380 10
381 100
382 20
383 20
384 20
385 20
386 100
387 20
388 20
389 20
390 20
391 100
392 20
393 10
394 20
395 20
396 20
397 20
398 10
399 100
400 20
401 20
402 20
403 20
404 20
405 20
406 10
407 20
408 20
409 20
410 20
411 100
412 20
413 20
414 20
415 100
416 20
417 20
418 10
419 100
420 20
421 20
422 20
423 20
424 20
425 20
426 20
427 20
428 100
429 20
430 10
431 20
432 20
433 20
434 20
435 100
436 20
437 10
438 100
439 10
440 100
441 20
442 20
443 20
444 20
445 10
446 100
447 100
448 20
449 20
450 100
451 100
452 20
453 10
454 100
455 20
456 10
457 100
458 20
459 20
460 10
461 100
462 20
463 20
464 10
465 100
466 20
467 20
468 20
469 100
470 20
471 100
472 20
473 20
474 20
475 20
476 10
477 20
478 20
479 20
480 10
481 100
482 20
483 20
484 20
485 20
486 10
487 100
488 20
489 100
490 20
491 10
492 100
493 20
494 20
495 20
496 10
497 100
498 20
499 10
500 100
501 20
502 20
503 100
504 20
505 20
506 20
507 20
508 10
509 20
510 20
511 10
512 100
513 20
514 20
515 20
516 20
517 20
518 100
519 20
520 10
521 100
522 20
523 20
524 20
525 20
526 10
527 20
528 20
529 20
530 20
531 10
532 100
533 20
534 100
535 20
536 20
537 20
538 20
539 20
540 20
541 10
542 100
543 10
544 20
545 20
546 20
547 20
548 20
549 20
550 20
551 100
552 20
553 20
554 10
555 100
556 20
557 20
558 20
559 20
560 10
561 20
562 20
563 20
564 20
565 20
566 100
567 20
568 20
569 10
570 100
571 100
572 20
573 10
574 20
575 20
576 10
577 100
578 20
579 10
580 20
581 20
582 20
583 20
584 10
585 100
586 20
587 10
588 100
589 10
590 100
591 100
592 20
593 20
594 20
595 10
596 100
597 20
598 10
599 20
600 20
601 20
602 10
603 100
604 20
605 20
606 20
607 20
608 20
609 20
610 20
611 100
612 20
613 20
614 10
615 100
616 20
617 20
618 20
619 10
620 20
621 20
622 10
623 100
624 20
625 20
626 20
627 20
628 10
629 100
630 100
631 20
632 20
633 20
634 20
635 100
636 20
637 20
638 20
639 20
640 20
641 20
642 10
643 20
644 10
645 100
646 20
647 100
648 20
649 20
650 20
651 10
652 100
653 20
654 20
655 20
656 20
657 20
658 10
DEPOT_SECTION
1
-1
EOF