SDVRP instances/p10/p10_110_tsplib0_splitx10_0.sol
657 -6 10 533 7 9 534 535 8 290 292 293 291 347 349 348 208 205 207 206 82 84 85 83 532 394 396 395 397 488 490 489 313 311 314 312 487 486 67 66 65 317 318 319 611 613 612 610 645 644 213 392 391 390 -21 25 368 365 364 366 367 642 643 537 536 469 468 657 656 655 654 125 126 393 219 220 492 491 471 470 306 307 308 305 304 607 608 609 198 200 199 404 405 401 403 402 70 69 68 603 602 360 361 358 363 359 362 218 214 216 215 217 540 539 538 328 331 330 329 -24 23 22 621 619 620 48 51 598 599 601 600 152 148 201 203 204 202 372 373 597 595 596 502 506 507 504 503 505 242 240 238 241 239 412 411 413 410 173 176 175 174 76 75 74 73 382 383 384 381 380 543 31 30 29 179 178 180 177 376 377 379 117 378 121 256 257 258 255 53 52 -49 50 150 149 151 250 249 252 248 251 253 493 495 494 71 72 497 498 496 245 244 247 246 243 55 54 500 501 499 464 467 465 466 316 315 510 509 508 546 93 90 92 94 91 545 544 254 622 451 452 450 269 270 267 268 563 -80 77 79 78 346 345 236 237 233 234 235 232 515 516 513 514 160 161 159 35 36 34 33 375 374 221 225 224 226 223 222 593 592 590 591 594 106 107 110 108 109 453 454 455 26 158 157 156 512 511 191 190 192 189 -105 104 103 212 209 210 211 579 581 583 582 580 28 351 353 27 352 350 58 57 56 60 59 230 228 229 227 231 445 429 428 42 280 279 278 559 556 557 558 555 554 342 343 344 589 341 81 183 181 182 385 387 389 388 386 164 -136 137 134 135 520 522 523 524 521 525 265 266 46 47 45 530 526 529 528 527 431 430 432 433 113 114 115 112 303 300 302 301 474 475 472 473 62 61 550 552 551 553 427 111 531 142 565 567 566 568 477 476 478 479 519 518 -165 168 167 166 88 89 418 421 420 422 419 569 63 64 320 324 323 322 321 482 483 484 480 485 481 423 424 425 426 274 275 277 276 573 575 574 570 572 571 144 145 147 146 143 186 188 185 184 187 355 16 356 17 354 20 18 19 357 86 87 133 339 337 336 340 338 436 435 434 -193 196 195 194 197 100 99 101 102 652 163 653 162 651 631 630 629 633 632 605 606 604 542 541 400 398 399 309 310 124 123 122 624 623 626 627 625 128 127 129 649 646 647 648 650 628 4 2 1 5 3 641 639 640 637 634 638 635 636 -294 297 295 296 298 299 15 14 443 444 442 440 439 441 -325 327 326 517 409 408 407 406 11 13 12 172 170 171 169 130 132 131 369 371 370 96 95 97 98 334 335 333 332 614 615 618 617 616 119 118 120 449 40 41 37 38 39 154 153 155 561 562 560 272 273 271 438 437 -448 446 447 32 259 260 414 417 415 416 116 549 564 547 548 284 288 287 286 289 285 463 462 460 461 282 283 281 44 43 457 458 456 459 586 584 585 263 264 261 262 587 588 139 138 141 140 576 578 577 0 





OBJ=
1116.790
BEST_KNOWN=
0.000